p cnf 10 50
10 6 1 0
8 7 -3 0
-7 -8 9 0
7 -4 -2 0
-4 -2 -8 0
5 -9 -7 0
-4 5 -10 0
7 10 5 0
10 8 9 0
8 -2 7 0
-6 -7 -8 0
-7 1 -8 0
5 10 -7 0
4 1 9 0
6 1 3 0
8 6 -4 0
7 -2 1 0
-5 -9 4 0
5 6 -8 0
5 -8 1 0
-10 2 -1 0
4 -1 10 0
2 -9 -6 0
-6 -4 9 0
9 7 1 0
-10 -5 -8 0
4 -2 9 0
-7 5 -2 0
3 -5 10 0
-2 -9 -3 0
9 -2 -6 0
-5 2 4 0
-2 4 -6 0
5 -8 6 0
-2 -1 -4 0
9 3 -6 0
-1 -6 3 0
-3 -10 9 0
1 4 -6 0
-3 -8 7 0
-5 8 -2 0
-6 8 -3 0
-7 -10 -2 0
8 -1 9 0
8 -1 5 0
-2 -6 -5 0
-5 7 1 0
-10 2 5 0
-2 -9 1 0
-7 -6 -8 0